Translating instance to solver...

Set parameter TimeLimit to value 28800
Gurobi Optimizer version 11.0.2 build v11.0.2rc0 (linux64 - "Ubuntu 22.04.4 LTS")

CPU model: Intel(R) Xeon(R) Gold 5120 CPU @ 2.20GHz, instruction set [SSE2|AVX|AVX2|AVX512]
Thread count: 28 physical cores, 56 logical processors, using up to 28 threads

Academic license 2463511 - for non-commercial use only - registered to lu___@cefet-rj.br
Optimize a model with 12725 rows, 7643 columns and 31653 nonzeros
Model fingerprint: 0xd1a245bb
Variable types: 1 continuous, 7642 integer (7620 binary)
Coefficient statistics:
  Matrix range     [1e+00, 1e+05]
  Objective range  [3e-01, 8e-01]
  Bounds range     [1e+00, 2e+01]
  RHS range        [1e+00, 2e+01]
Presolve removed 10507 rows and 6685 columns
Presolve time: 0.16s
Presolved: 2218 rows, 958 columns, 7429 nonzeros
Variable types: 0 continuous, 958 integer (937 binary)

Root relaxation: objective 6.348589e-01, 467 iterations, 0.01 seconds (0.01 work units)

    Nodes    |    Current Node    |     Objective Bounds      |     Work
 Expl Unexpl |  Obj  Depth IntInf | Incumbent    BestBd   Gap | It/Node Time

     0     0    0.63486    0   56          -    0.63486      -     -    0s
H    0     0                       1.3676730    0.63486  53.6%     -    0s
H    0     0                       1.0617820    0.63486  40.2%     -    0s
     0     0    0.91767    0   18    1.06178    0.91767  13.6%     -    0s
     0     0    0.91767    0   12    1.06178    0.91767  13.6%     -    0s
     0     0    0.91767    0   55    1.06178    0.91767  13.6%     -    0s
     0     0    0.91767    0   31    1.06178    0.91767  13.6%     -    0s
     0     0    0.91767    0   24    1.06178    0.91767  13.6%     -    0s
     0     0    0.91767    0   65    1.06178    0.91767  13.6%     -    0s
     0     0    0.91767    0   30    1.06178    0.91767  13.6%     -    0s
     0     0    0.91767    0   61    1.06178    0.91767  13.6%     -    0s
     0     0    0.91767    0   10    1.06178    0.91767  13.6%     -    0s
     0     0    0.91767    0   10    1.06178    0.91767  13.6%     -    0s
     0     0    0.91767    0   10    1.06178    0.91767  13.6%     -    0s
     0     2    0.91767    0   10    1.06178    0.91767  13.6%     -    0s

Cutting planes:
  Learned: 11
  Gomory: 2
  StrongCG: 3
  Flow cover: 7
  Zero half: 6
  RLT: 6
  Relax-and-lift: 2

Explored 12 nodes (3769 simplex iterations) in 0.76 seconds (0.38 work units)
Thread count was 28 (of 56 available processors)

Solution count 2: 1.06178 1.36767 

Optimal solution found (tolerance 1.00e-04)
Best objective 1.061782000000e+00, best bound 1.061782000000e+00, gap 0.0000%

Solver Wallclock Time (for this epsilon): 0.7599060535430908 s
Python wallclock Time (for this epsilon): 1.6727807521820068 s


Total Elapsed Time (since program call): 12.966278314590454 s

Results:

I = 1.061782 mA
C = 48.0 points
C ~= 19.200000000000003 km^2

Minimum Epsilon for this instance = 10
Maximum Epsilon for this instance = 100

Current Epsilon = 20


Preprocessing Time (for this epsilon): 0.003402233123779297 s


Updated solution vectors:
sol_I = [-0.611782,-1.061782]
sol_C = [14.0,48.0]
sol_eps = [10,20]
sol_gap = [0.0,0.0]
